# LAMMPS input script 

variable T equal 300.0
variable p equal 1.0
variable tauT equal 100.0
variable tauP equal 1000.0

units real
atom_style full
bond_style harmonic
angle_style harmonic
dihedral_style charmm
improper_style harmonic
boundary p p p

# Sets the 3 coefficients to 0.0, 0.0, 0.5 for LJ interactions and
# to 0.0, 0.0, 0.8333 for Coulombic interactions
# and impose the Lorentz-Berthelot mixing rules
pair_style lj/cut/coul/long 8.5
special_bonds amber
pair_modify mix arithmetic
kspace_style ewald 1e-5

read_data outputs/topology.data

group zif8 type 1 2 3 4 5 6 7
group methanol type 8 9 10 11
group water type 12 13 14
group mixture union methanol water

delete_atoms group zif8 mol yes

include ../../../mc-topology/molecule-reservoir/CH4O-H2O/parameters.inc

velocity all create ${T} 4928459 rot yes dist gaussian
fix mynvt1 zif8 nvt temp ${T} ${T} ${tauT}
fix mynvt2 mixture rigid/nvt molecule temp ${T} ${T} ${tauT}

dump mydmp all atom 10 dump.lammpstrj
thermo 10

run 1000

write_data temp.data
