# LAMMPS input script 

variable T equal 300.0
variable p equal 1.0
variable tauT equal 100.0
variable tauP equal 1000.0

units real
atom_style full
bond_style harmonic
angle_style harmonic
dihedral_style hybrid opls charmm
improper_style harmonic
boundary p p p
pair_style lj/cut/coul/long 12
special_bonds amber
pair_modify mix arithmetic
kspace_style ewald 1e-5

read_data outputs/topology.data

group zif8 type 1 2 3 4 5 6 7
group methanol type 8 9 10 11
group water type 12 13 14
group mixture union methanol water
group flexible union methanol zif8

include ../../../mc-topology/testcase-adsorption/ZIF8-CH4O-H2O/parameters.inc

velocity all create ${T} 4928459 rot yes mom yes dist gaussian
fix mynvt1 flexible nvt temp ${T} ${T} ${tauT}
fix mynvt2 water rigid/npt molecule temp ${T} ${T} ${tauT} iso ${p} ${p} ${tauP}
timestep 0.5

dump mydmp all atom 100 dump.lammpstrj
thermo 100

run 5000

write_data temp.data
